Version identifier: 22.1.0.0 | 2022-03-09 | 1a383f8ce
CPXPARAM_Threads                                 1
CPXPARAM_MIP_Strategy_VariableSelect             3
CPXPARAM_TimeLimit                               599.99712345
Found incumbent of value 0.000000 after 0.00 sec. (0.43 ticks)

Root node processing (before b&c):
  Real time             =    0.00 sec. (0.49 ticks)
Sequential b&c:
  Real time             =    0.00 sec. (0.00 ticks)
                          ------------
Total (root+branch&cut) =    0.00 sec. (0.49 ticks)
Version identifier: 22.1.0.0 | 2022-03-09 | 1a383f8ce
CPXPARAM_Threads                                 1
CPXPARAM_MIP_Strategy_VariableSelect             3
CPXPARAM_TimeLimit                               599.978601626
Found incumbent of value 0.000000 after 0.00 sec. (0.54 ticks)

Root node processing (before b&c):
  Real time             =    0.00 sec. (0.60 ticks)
Sequential b&c:
  Real time             =    0.00 sec. (0.00 ticks)
                          ------------
Total (root+branch&cut) =    0.00 sec. (0.60 ticks)
Version identifier: 22.1.0.0 | 2022-03-09 | 1a383f8ce
CPXPARAM_Threads                                 1
CPXPARAM_MIP_Strategy_VariableSelect             3
CPXPARAM_TimeLimit                               599.95749911899998
Found incumbent of value 0.000000 after 0.00 sec. (0.59 ticks)

Root node processing (before b&c):
  Real time             =    0.00 sec. (0.66 ticks)
Sequential b&c:
  Real time             =    0.00 sec. (0.00 ticks)
                          ------------
Total (root+branch&cut) =    0.00 sec. (0.66 ticks)
Version identifier: 22.1.0.0 | 2022-03-09 | 1a383f8ce
CPXPARAM_Threads                                 1
CPXPARAM_MIP_Strategy_VariableSelect             3
CPXPARAM_TimeLimit                               599.93472908399997
Found incumbent of value 0.000000 after 0.00 sec. (0.61 ticks)

Root node processing (before b&c):
  Real time             =    0.00 sec. (0.69 ticks)
Sequential b&c:
  Real time             =    0.00 sec. (0.00 ticks)
                          ------------
Total (root+branch&cut) =    0.00 sec. (0.69 ticks)
Version identifier: 22.1.0.0 | 2022-03-09 | 1a383f8ce
CPXPARAM_Threads                                 1
CPXPARAM_MIP_Strategy_VariableSelect             3
CPXPARAM_TimeLimit                               599.91083438999999
Found incumbent of value 0.000000 after 0.00 sec. (0.62 ticks)

Root node processing (before b&c):
  Real time             =    0.00 sec. (0.70 ticks)
Sequential b&c:
  Real time             =    0.00 sec. (0.00 ticks)
                          ------------
Total (root+branch&cut) =    0.00 sec. (0.70 ticks)
Version identifier: 22.1.0.0 | 2022-03-09 | 1a383f8ce
CPXPARAM_Threads                                 1
CPXPARAM_MIP_Strategy_VariableSelect             3
CPXPARAM_TimeLimit                               599.88642320700001
Found incumbent of value 0.000000 after 0.00 sec. (0.65 ticks)

Root node processing (before b&c):
  Real time             =    0.00 sec. (0.73 ticks)
Sequential b&c:
  Real time             =    0.00 sec. (0.00 ticks)
                          ------------
Total (root+branch&cut) =    0.00 sec. (0.73 ticks)
Version identifier: 22.1.0.0 | 2022-03-09 | 1a383f8ce
CPXPARAM_Threads                                 1
CPXPARAM_MIP_Strategy_VariableSelect             3
CPXPARAM_TimeLimit                               599.86198432100002
Tried aggregator 1 time.
MIP Presolve eliminated 17 rows and 381 columns.
MIP Presolve modified 1 coefficients.
Reduced MIP has 2662 rows, 4191 columns, and 42037 nonzeros.
Reduced MIP has 4191 binaries, 0 generals, 0 SOSs, and 0 indicators.
Presolve time = 0.03 sec. (21.27 ticks)
Probing time = 0.00 sec. (3.15 ticks)
Tried aggregator 1 time.
Detecting symmetries...
Reduced MIP has 2662 rows, 4191 columns, and 42037 nonzeros.
Reduced MIP has 4191 binaries, 0 generals, 0 SOSs, and 0 indicators.
Presolve time = 0.03 sec. (26.05 ticks)
Probing time = 0.00 sec. (3.15 ticks)
Clique table members: 1894.
MIP emphasis: balance optimality and feasibility.
MIP search method: dynamic search.
Parallel mode: none, using 1 thread.
Root relaxation solution time = 0.04 sec. (35.16 ticks)

        Nodes                                         Cuts/
   Node  Left     Objective  IInf  Best Integer    Best Bound    ItCnt     Gap

      0     0        0.0000   142                      0.0000      681         
*     0+    0                            0.0000        0.0000             0.00%
      0     0        cutoff              0.0000        0.0000      681    0.00%
Elapsed time = 0.26 sec. (226.62 ticks, tree = 0.01 MB, solutions = 1)

Root node processing (before b&c):
  Real time             =    0.26 sec. (226.76 ticks)
Sequential b&c:
  Real time             =    0.00 sec. (0.00 ticks)
                          ------------
Total (root+branch&cut) =    0.26 sec. (226.76 ticks)
Version identifier: 22.1.0.0 | 2022-03-09 | 1a383f8ce
CPXPARAM_Threads                                 1
CPXPARAM_MIP_Strategy_VariableSelect             3
CPXPARAM_TimeLimit                               599.57458793499995
Tried aggregator 1 time.
MIP Presolve eliminated 17 rows and 382 columns.
MIP Presolve modified 1 coefficients.
Reduced MIP has 2669 rows, 4202 columns, and 42148 nonzeros.
Reduced MIP has 4202 binaries, 0 generals, 0 SOSs, and 0 indicators.
Presolve time = 0.03 sec. (21.33 ticks)
Probing time = 0.00 sec. (3.15 ticks)
Tried aggregator 1 time.
Detecting symmetries...
Reduced MIP has 2669 rows, 4202 columns, and 42148 nonzeros.
Reduced MIP has 4202 binaries, 0 generals, 0 SOSs, and 0 indicators.
Presolve time = 0.03 sec. (26.12 ticks)
Probing time = 0.00 sec. (3.15 ticks)
Clique table members: 1899.
MIP emphasis: balance optimality and feasibility.
MIP search method: dynamic search.
Parallel mode: none, using 1 thread.
Root relaxation solution time = 0.04 sec. (37.88 ticks)

        Nodes                                         Cuts/
   Node  Left     Objective  IInf  Best Integer    Best Bound    ItCnt     Gap

      0     0        0.0000   211                      0.0000      788         
*     0+    0                            0.0000        0.0000             0.00%
      0     0        cutoff              0.0000        0.0000      788    0.00%
Elapsed time = 0.22 sec. (182.24 ticks, tree = 0.01 MB, solutions = 1)

Root node processing (before b&c):
  Real time             =    0.22 sec. (182.38 ticks)
Sequential b&c:
  Real time             =    0.00 sec. (0.00 ticks)
                          ------------
Total (root+branch&cut) =    0.22 sec. (182.38 ticks)
Primal:	382
Dual:	382
Status:	Optimal
Time:	0.663368
Sequence:
	9
	9
	9
	9
	9
	5
	9
	1
	9
	9
	4
	9
	9
	4
	9
	6
	9
	9
	9
	5
	9
	9
	6
	9
	9
	9
	9
	9
	9
	9
	9
	9
	9
	6
	9
	9
	4
	7
	9
	4
	9
	9
	9
	5
	9
	5
	9
	9
	4
	1
	9
	7
	9
	9
	6
	9
	1
	9
	1
	9
	9
	1
	9
	9
	9
	9
	1
	9
	9
	9
	9
	9
	9
	9
	9
	1
	9
	9
	9
	9
	1
	9
	9
	9
	9
	9
	9
	6
	9
	9
	1
	9
	4
	4
	9
	4
	7
	9
	5
	9
	9
	4
	6
	0
	1
	4
	6
	9
	1
	9
	5
	0
	4
	6
	9
	7
	9
	5
	4
	9
	4
	1
	9
	6
	4
	1
	4
	1
	4
	0
	5
	4
	9
	4
	1
	4
	9
	7
	4
	0
	5
	4
	1
	0
	1
	4
	1
	0
	1
	4
	9
	7
	9
	5
	9
	4
	1
	4
	4
	0
	6
	4
	9
	3
	9
	6
	4
	1
	4
	9
	7
	0
	1
	4
	4
	9
	1
	4
	1
	4
	5
	9
	9
	1
	4
	1
	4
	6
	9
	0
	5
	4
	1
	0
	5
	4
	1
	4
	0
	5
	4
	11
	0
	6
	4
	9
	1
	4
	6
	9
	7
	0
	5
	9
	4
	5
	0
	4
	4
	9
	6
	9
	4
	1
	4
	5
	0
	7
	9
	9
	1
	0
	9
	6
	9
	4
	4
	11
	4
	6
	0
	4
	9
	1
	9
	4
	4
	1
	4
	4
	1
	4
	5
	9
	4
	9
	10
	4
	6
	9
	4
	0
	6
	4
	3
	9
	6
	4
	1
	9
	9
	4
	1
	4
	0
	7
	4
	1
	0
	5
	9
	4
	7
	9
	4
	6
	9
	9
	7
	8
	1
	4
	4
	9
	4
	1
	4
	9
	5
	4
	1
	4
	1
	4
	3
	9
	9
	1
	9
	4
	5
	0
	6
	4
	9
	5
	9
	7
	4
	9
	4
	4
	1
	4
	4
	1
	9
	7
	4
	9
	6
	9
	1
	9
	6
	9
	5
	0
	4
	4
	9
	1
	4
	4
	1
	4
	1
	9
	1
	4
	1
	4
	1
	4
	6
	9
	9
	7
	0
	6
	9
	10
	4
	6
	0
	1
	9
	1
	9
	4
	5
	0
	6
	9
	7
	4
	1
	4
	4
	1
	8
	5
